(assert (forall ((pkt_0_4_6_0  Int  )(state_group_0_state_0_5_7_0  Int  )(state_group_0_state_1_6_8_0  Int  )) (let ((_n0 state_group_0_state_1_6_8_0 ))
(let ((_n1 state_group_0_state_0_5_7_0 ))
(let ((_n2 true ))
(let ((_n3 (+   _n1   (ite  _n2  1 0) ) ))
(let ((_n4 (ite (=  _n0  0)  _n3   _n1  ) ))
(let ((_n5 false ))
(let ((_n6 (=   _n0   (ite  _n5  1 0) ) ))
(let ((_n7 (not  _n6 ) ))
(let ((_n8 1000 ))
(let ((_n9 pkt_0_4_6_0 ))
(let ((_n10 (ite (=  _n0  0)  _n9   (ite  _n5  1 0)  ) ))
(let ((_n11 (ite (=  _n0  0)  _n1   (ite  _n5  1 0)  ) ))
(let ((_n12 (+   _n11   _n10 ) ))
(let ((_n13 (<   _n12   _n8 ) ))
(let ((_n14 (ite (=  _n0  0)  _n13   _n5  ) ))
(let ((_n15 (and   _n14   _n6 ) ))
(let ((_n16 (ite  _n15   _n9   (ite  _n5  1 0)  ) ))
(let ((_n17 (ite  _n15   _n0   (ite  _n5  1 0)  ) ))
(let ((_n18 (+   _n17   _n16 ) ))
(let ((_n19 (<   _n18   (ite  _n2  1 0) ) ))
(let ((_n20 (and   _n15   _n19 ) ))
(let ((_n21 (not  _n15 ) ))
(let ((_n22 (or   _n20   _n21 ) ))
(let ((_n23 (not  _n22 ) ))
(let ((_n24 (+   _n1   (ite  _n23  1 0) ) ))
(let ((_n25 (and   _n20   _n15 ) ))
(let ((_n26 (ite  _n25   _n9   (ite  _n5  1 0)  ) ))
(let ((_n27 (+   _n26   (ite  _n25  1 0) ) ))
(let ((_n28 (ite  _n25   _n27   (ite  _n5  1 0)  ) ))
(let ((_n29 (+   _n1   _n28 ) ))
(let ((_n30 (ite (=  (ite  _n20  1 0)  1)  _n29   _n24  ) ))
(let ((_n31 (ite (=  (ite  _n14  1 0)  1)  _n30   _n1  ) ))
(let ((_n32 (ite (=  (ite  _n7  1 0)  1)  _n1   _n31  ) ))
(let ((_n33 (=   _n32   _n4 ) ))
(let ((_n35 (ite (=  _n1  999)  (ite  _n2  1 0)   _n0  ) ))
(let ((_n36 (ite (=  _n0  0)  _n35   _n0  ) ))
(let ((_n37 (+   _n26   _n26 ) ))
(let ((_n38 (ite  _n25   _n37   (ite  _n5  1 0)  ) ))
(let ((_n39 (+   _n0   _n38 ) ))
(let ((_n40 (ite (=  (ite  _n20  1 0)  1)  _n39   _n0  ) ))
(let ((_n41 (ite (=  (ite  _n14  1 0)  1)  _n40   _n0  ) ))
(let ((_n42 (ite (=  (ite  _n7  1 0)  1)  _n0   _n41  ) ))
(let ((_n43 (=   _n42   _n36 ) ))
(let ((_n45 (ite (=  _n9  0)  _n9   (ite  _n5  1 0)  ) ))
(let ((_n46 (ite (=  _n9  0)  _n45   _n9  ) ))
(let ((_n47 (=   _n46   _n9 ) ))
(implies  (and (and (>= state_group_0_state_1_6_8_0 0) (< state_group_0_state_1_6_8_0 1024 ))  (and (and (>= state_group_0_state_0_5_7_0 0) (< state_group_0_state_0_5_7_0 1024 ))  (and (>= pkt_0_4_6_0 0) (< pkt_0_4_6_0 1024 )) ) )   (and  _n33  _n43  _n47 )  )))))))))))))))))))))))))))))))))))))))))))))))))
(check-sat)
(get-model)
(exit)